p cnf 7230 15
-1418 1594 -1599 0
1418 -1595 0
-1595 1599 0
148 -1601 0
-148 -1426 1600 0
-1600 1601 0
-1594 1595 0
1426 -1601 0
-1597 1599 0
1598 -1599 0
1596 -1598 0
-1298 1597 0
1298 -1596 0
-1592 1593 0
148 -1603 0
